c random clauses
p cnf 19 16
-19 -18 -15 -13 -2 -1 9 16 0
-19 -18 -12 -5 8 10 11 13 0
-19 -15 -7 4 11 12 16 18 0
-19 -15 -5 -4 -1 3 7 14 0
-19 -12 -9 -5 -3 4 11 17 0
-18 -15 -4 10 11 12 16 19 0
-17 -14 -11 -10 -7 2 4 8 0
-16 1 4 7 13 15 18 19 0
-15 -14 -13 4 5 6 7 11 0
-15 -13 -11 -5 4 6 10 19 0
-15 -12 -9 -8 -7 2 5 17 0
-15 -12 -7 -1 2 3 4 16 0
-13 -3 6 8 9 14 17 19 0
-13 1 6 8 10 14 16 19 0
-10 -7 -1 6 12 15 16 19 0
-4 2 6 8 11 16 18 19 0
